<?xml version = "1.0" standalone="yes"?>
<!-- This file has been generated by DOcplex version 2.23.222  -->
<CPLEXSolution version="1.0">
 <header
   problemName="CVRP"
   objectiveValue="7009.02"
  />
 <variables>
  <variable name="x_0_3" index="2" value="1.00000"/>
  <variable name="x_0_5" index="4" value="1.00000"/>
  <variable name="x_0_8" index="7" value="1.00000"/>
  <variable name="x_0_9" index="8" value="1.00000"/>
  <variable name="x_0_10" index="9" value="1.00000"/>
  <variable name="x_0_11" index="10" value="1.00000"/>
  <variable name="x_1_0" index="12" value="1.00000"/>
  <variable name="x_2_0" index="24" value="1.00000"/>
  <variable name="x_3_0" index="36" value="1.00000"/>
  <variable name="x_4_2" index="50" value="1.00000"/>
  <variable name="x_5_7" index="66" value="1.00000"/>
  <variable name="x_6_1" index="73" value="1.00000"/>
  <variable name="x_7_0" index="84" value="1.00000"/>
  <variable name="x_8_6" index="102" value="1.00000"/>
  <variable name="x_9_4" index="112" value="1.00000"/>
  <variable name="x_10_0" index="120" value="1.00000"/>
  <variable name="x_11_12" index="143" value="1.00000"/>
  <variable name="x_12_0" index="144" value="1.00000"/>
  <variable name="u_1" index="156" value="50.00000"/>
  <variable name="u_2" index="157" value="54.00000"/>
  <variable name="u_3" index="158" value="59.00000"/>
  <variable name="u_4" index="159" value="51.00000"/>
  <variable name="u_5" index="160" value="7.00000"/>
  <variable name="u_6" index="161" value="27.00000"/>
  <variable name="u_7" index="162" value="46.00000"/>
  <variable name="u_8" index="163" value="21.00000"/>
  <variable name="u_9" index="164" value="6.00000"/>
  <variable name="u_10" index="165" value="49.00000"/>
  <variable name="u_11" index="166" value="23.00000"/>
  <variable name="u_12" index="167" value="60.00000"/>
 </variables>
</CPLEXSolution>
